data;

set J := 1 2 3 4 5 6 7 8 9 10;
set I := 1 2 3 4 5 6 7 8 9;

param p := 
    1 6
    2 143
    3 165
    4 69
    5 14
    6 61
    7 154
    8 60
    9 1
    10 96;

param r := 
    1 111
    2 92
    3 67
    4 130
    5 39
    6 152
    7 148
    8 127
    9 83
    10 47;

param T := 183;
param R := 166;
param M := 1000000;

end;